lbl,CUST NO.,READY TIME,XCOORD.,YCOORD.,DEMAND,DUE DATE,SERVICE TIME
12,45,19,89,73,10,123,90
12,178,54,91,78,10,175,90
12,27,150,93,75,30,267,90
12,173,237,95,77,10,365,90
12,154,331,96,74,10,457,90
12,24,429,98,70,10,548,90
12,61,510,94,70,20,656,90
12,100,597,94,72,20,753,90
12,64,710,94,73,10,822,90
12,179,806,91,71,20,912,90
12,109,877,88,72,30,1028,90
